100 500 10 200 10 100
90 145
86 112
67 22
84 144
71 161
20 114
30 139
12 103
14 97
32 43
10 28
98 79
92 24
11 141
39 151
42 128
29 69
39 83
32 22
94 96
44 28
42 149
100 79
51 124
34 148
30 136
53 103
84 107
79 35
52 74
71 169
53 92
81 74
92 153
58 34
59 102
52 93
55 200
89 115
71 149
86 102
64 49
88 133
37 112
85 37
38 155
79 20
98 76
26 32
24 182
91 112
28 121
27 147
63 178
31 87
45 135
40 32
26 174
100 185
47 134
48 127
93 60
73 146
38 43
59 190
25 89
79 120
98 139
15 165
27 161
46 63
23 30
25 112
57 83
45 122
62 130
49 138
62 198
25 151
63 116
59 98
23 84
20 27
49 118
34 150
31 32
82 17
100 154
91 111
75 38
29 87
72 93
61 182
42 164
94 164
50 115
72 96
42 92
90 32
23 116
